length = 20;
width = 10;

mist =   array1d(LENGTH,[0,0,0,3,3,3,6,6,6,6,2,2,2,4,4,4,0,0,5,5]);
arrow  = array1d(WIDTH,[0,10,20,40,100,120,70,30,5,0]);
price = [ 5, 6, 7 ];
budget = 40;
stage = A;

ntypes = 3;
number = [3,2,4];
config = [{1},{2},{3}];

nshapes = 3;
shape = [{1},{2},{3}];

nroff = 3;
rectoff = [| 0,0,8,1
           | 0,0,2,6
           | 0,0,4,4 |]; 
